1105000
51,13,85,81,57,15,14,82,87,49,37,35,90,43,54,71,67,98,79,12,62,61,9,17,40,5,74,68,55,48,92,41,96,34,1,26,63,4,2,84,88,7,52,60,66,10,22,27,45,33,70,97,53,64,38,3,65,6,91,83,21,16,28,78,72,80,44,86,75,47,36,59,30,76,29,95,20,19,31,73,69,0,8,32,56,46,94,24,77,50,39,93,25,11,18,58,89,23,42,51